c graph colorability of graph:
c random_regular_graph(5, 98).
c
c Generated with `cnfgen`
c (C) 2012-2016 Massimo Lauria <lauria.massimo@gmail.com>
c https://massimolauria.github.io/cnfgen
c
p cnf 294 1127
1 2 3 0
-1 -2 0
-1 -3 0
-2 -3 0
4 5 6 0
-4 -5 0
-4 -6 0
-5 -6 0
7 8 9 0
-7 -8 0
-7 -9 0
-8 -9 0
10 11 12 0
-10 -11 0
-10 -12 0
-11 -12 0
13 14 15 0
-13 -14 0
-13 -15 0
-14 -15 0
16 17 18 0
-16 -17 0
-16 -18 0
-17 -18 0
19 20 21 0
-19 -20 0
-19 -21 0
-20 -21 0
22 23 24 0
-22 -23 0
-22 -24 0
-23 -24 0
25 26 27 0
-25 -26 0
-25 -27 0
-26 -27 0
28 29 30 0
-28 -29 0
-28 -30 0
-29 -30 0
31 32 33 0
-31 -32 0
-31 -33 0
-32 -33 0
34 35 36 0
-34 -35 0
-34 -36 0
-35 -36 0
37 38 39 0
-37 -38 0
-37 -39 0
-38 -39 0
40 41 42 0
-40 -41 0
-40 -42 0
-41 -42 0
43 44 45 0
-43 -44 0
-43 -45 0
-44 -45 0
46 47 48 0
-46 -47 0
-46 -48 0
-47 -48 0
49 50 51 0
-49 -50 0
-49 -51 0
-50 -51 0
52 53 54 0
-52 -53 0
-52 -54 0
-53 -54 0
55 56 57 0
-55 -56 0
-55 -57 0
-56 -57 0
58 59 60 0
-58 -59 0
-58 -60 0
-59 -60 0
61 62 63 0
-61 -62 0
-61 -63 0
-62 -63 0
64 65 66 0
-64 -65 0
-64 -66 0
-65 -66 0
67 68 69 0
-67 -68 0
-67 -69 0
-68 -69 0
70 71 72 0
-70 -71 0
-70 -72 0
-71 -72 0
73 74 75 0
-73 -74 0
-73 -75 0
-74 -75 0
76 77 78 0
-76 -77 0
-76 -78 0
-77 -78 0
79 80 81 0
-79 -80 0
-79 -81 0
-80 -81 0
82 83 84 0
-82 -83 0
-82 -84 0
-83 -84 0
85 86 87 0
-85 -86 0
-85 -87 0
-86 -87 0
88 89 90 0
-88 -89 0
-88 -90 0
-89 -90 0
91 92 93 0
-91 -92 0
-91 -93 0
-92 -93 0
94 95 96 0
-94 -95 0
-94 -96 0
-95 -96 0
97 98 99 0
-97 -98 0
-97 -99 0
-98 -99 0
100 101 102 0
-100 -101 0
-100 -102 0
-101 -102 0
103 104 105 0
-103 -104 0
-103 -105 0
-104 -105 0
106 107 108 0
-106 -107 0
-106 -108 0
-107 -108 0
109 110 111 0
-109 -110 0
-109 -111 0
-110 -111 0
112 113 114 0
-112 -113 0
-112 -114 0
-113 -114 0
115 116 117 0
-115 -116 0
-115 -117 0
-116 -117 0
118 119 120 0
-118 -119 0
-118 -120 0
-119 -120 0
121 122 123 0
-121 -122 0
-121 -123 0
-122 -123 0
124 125 126 0
-124 -125 0
-124 -126 0
-125 -126 0
127 128 129 0
-127 -128 0
-127 -129 0
-128 -129 0
130 131 132 0
-130 -131 0
-130 -132 0
-131 -132 0
133 134 135 0
-133 -134 0
-133 -135 0
-134 -135 0
136 137 138 0
-136 -137 0
-136 -138 0
-137 -138 0
139 140 141 0
-139 -140 0
-139 -141 0
-140 -141 0
142 143 144 0
-142 -143 0
-142 -144 0
-143 -144 0
145 146 147 0
-145 -146 0
-145 -147 0
-146 -147 0
148 149 150 0
-148 -149 0
-148 -150 0
-149 -150 0
151 152 153 0
-151 -152 0
-151 -153 0
-152 -153 0
154 155 156 0
-154 -155 0
-154 -156 0
-155 -156 0
157 158 159 0
-157 -158 0
-157 -159 0
-158 -159 0
160 161 162 0
-160 -161 0
-160 -162 0
-161 -162 0
163 164 165 0
-163 -164 0
-163 -165 0
-164 -165 0
166 167 168 0
-166 -167 0
-166 -168 0
-167 -168 0
169 170 171 0
-169 -170 0
-169 -171 0
-170 -171 0
172 173 174 0
-172 -173 0
-172 -174 0
-173 -174 0
175 176 177 0
-175 -176 0
-175 -177 0
-176 -177 0
178 179 180 0
-178 -179 0
-178 -180 0
-179 -180 0
181 182 183 0
-181 -182 0
-181 -183 0
-182 -183 0
184 185 186 0
-184 -185 0
-184 -186 0
-185 -186 0
187 188 189 0
-187 -188 0
-187 -189 0
-188 -189 0
190 191 192 0
-190 -191 0
-190 -192 0
-191 -192 0
193 194 195 0
-193 -194 0
-193 -195 0
-194 -195 0
196 197 198 0
-196 -197 0
-196 -198 0
-197 -198 0
199 200 201 0
-199 -200 0
-199 -201 0
-200 -201 0
202 203 204 0
-202 -203 0
-202 -204 0
-203 -204 0
205 206 207 0
-205 -206 0
-205 -207 0
-206 -207 0
208 209 210 0
-208 -209 0
-208 -210 0
-209 -210 0
211 212 213 0
-211 -212 0
-211 -213 0
-212 -213 0
214 215 216 0
-214 -215 0
-214 -216 0
-215 -216 0
217 218 219 0
-217 -218 0
-217 -219 0
-218 -219 0
220 221 222 0
-220 -221 0
-220 -222 0
-221 -222 0
223 224 225 0
-223 -224 0
-223 -225 0
-224 -225 0
226 227 228 0
-226 -227 0
-226 -228 0
-227 -228 0
229 230 231 0
-229 -230 0
-229 -231 0
-230 -231 0
232 233 234 0
-232 -233 0
-232 -234 0
-233 -234 0
235 236 237 0
-235 -236 0
-235 -237 0
-236 -237 0
238 239 240 0
-238 -239 0
-238 -240 0
-239 -240 0
241 242 243 0
-241 -242 0
-241 -243 0
-242 -243 0
244 245 246 0
-244 -245 0
-244 -246 0
-245 -246 0
247 248 249 0
-247 -248 0
-247 -249 0
-248 -249 0
250 251 252 0
-250 -251 0
-250 -252 0
-251 -252 0
253 254 255 0
-253 -254 0
-253 -255 0
-254 -255 0
256 257 258 0
-256 -257 0
-256 -258 0
-257 -258 0
259 260 261 0
-259 -260 0
-259 -261 0
-260 -261 0
262 263 264 0
-262 -263 0
-262 -264 0
-263 -264 0
265 266 267 0
-265 -266 0
-265 -267 0
-266 -267 0
268 269 270 0
-268 -269 0
-268 -270 0
-269 -270 0
271 272 273 0
-271 -272 0
-271 -273 0
-272 -273 0
274 275 276 0
-274 -275 0
-274 -276 0
-275 -276 0
277 278 279 0
-277 -278 0
-277 -279 0
-278 -279 0
280 281 282 0
-280 -281 0
-280 -282 0
-281 -282 0
283 284 285 0
-283 -284 0
-283 -285 0
-284 -285 0
286 287 288 0
-286 -287 0
-286 -288 0
-287 -288 0
289 290 291 0
-289 -290 0
-289 -291 0
-290 -291 0
292 293 294 0
-292 -293 0
-292 -294 0
-293 -294 0
-1 -109 0
-2 -110 0
-3 -111 0
-1 -187 0
-2 -188 0
-3 -189 0
-1 -229 0
-2 -230 0
-3 -231 0
-1 -241 0
-2 -242 0
-3 -243 0
-1 -277 0
-2 -278 0
-3 -279 0
-4 -148 0
-5 -149 0
-6 -150 0
-4 -250 0
-5 -251 0
-6 -252 0
-4 -268 0
-5 -269 0
-6 -270 0
-4 -283 0
-5 -284 0
-6 -285 0
-4 -292 0
-5 -293 0
-6 -294 0
-7 -22 0
-8 -23 0
-9 -24 0
-7 -49 0
-8 -50 0
-9 -51 0
-7 -67 0
-8 -68 0
-9 -69 0
-7 -73 0
-8 -74 0
-9 -75 0
-7 -184 0
-8 -185 0
-9 -186 0
-10 -49 0
-11 -50 0
-12 -51 0
-10 -91 0
-11 -92 0
-12 -93 0
-10 -127 0
-11 -128 0
-12 -129 0
-10 -250 0
-11 -251 0
-12 -252 0
-10 -265 0
-11 -266 0
-12 -267 0
-13 -52 0
-14 -53 0
-15 -54 0
-13 -97 0
-14 -98 0
-15 -99 0
-13 -148 0
-14 -149 0
-15 -150 0
-13 -160 0
-14 -161 0
-15 -162 0
-13 -172 0
-14 -173 0
-15 -174 0
-16 -79 0
-17 -80 0
-18 -81 0
-16 -181 0
-17 -182 0
-18 -183 0
-16 -193 0
-17 -194 0
-18 -195 0
-16 -202 0
-17 -203 0
-18 -204 0
-16 -214 0
-17 -215 0
-18 -216 0
-19 -37 0
-20 -38 0
-21 -39 0
-19 -61 0
-20 -62 0
-21 -63 0
-19 -115 0
-20 -116 0
-21 -117 0
-19 -130 0
-20 -131 0
-21 -132 0
-19 -283 0
-20 -284 0
-21 -285 0
-22 -28 0
-23 -29 0
-24 -30 0
-22 -67 0
-23 -68 0
-24 -69 0
-22 -118 0
-23 -119 0
-24 -120 0
-22 -265 0
-23 -266 0
-24 -267 0
-25 -88 0
-26 -89 0
-27 -90 0
-25 -115 0
-26 -116 0
-27 -117 0
-25 -175 0
-26 -176 0
-27 -177 0
-25 -268 0
-26 -269 0
-27 -270 0
-25 -280 0
-26 -281 0
-27 -282 0
-28 -40 0
-29 -41 0
-30 -42 0
-28 -115 0
-29 -116 0
-30 -117 0
-28 -187 0
-29 -188 0
-30 -189 0
-28 -220 0
-29 -221 0
-30 -222 0
-31 -121 0
-32 -122 0
-33 -123 0
-31 -157 0
-32 -158 0
-33 -159 0
-31 -217 0
-32 -218 0
-33 -219 0
-31 -244 0
-32 -245 0
-33 -246 0
-31 -286 0
-32 -287 0
-33 -288 0
-34 -79 0
-35 -80 0
-36 -81 0
-34 -91 0
-35 -92 0
-36 -93 0
-34 -208 0
-35 -209 0
-36 -210 0
-34 -238 0
-35 -239 0
-36 -240 0
-34 -244 0
-35 -245 0
-36 -246 0
-37 -58 0
-38 -59 0
-39 -60 0
-37 -187 0
-38 -188 0
-39 -189 0
-37 -247 0
-38 -248 0
-39 -249 0
-37 -292 0
-38 -293 0
-39 -294 0
-40 -85 0
-41 -86 0
-42 -87 0
-40 -124 0
-41 -125 0
-42 -126 0
-40 -247 0
-41 -248 0
-42 -249 0
-40 -256 0
-41 -257 0
-42 -258 0
-43 -52 0
-44 -53 0
-45 -54 0
-43 -76 0
-44 -77 0
-45 -78 0
-43 -112 0
-44 -113 0
-45 -114 0
-43 -142 0
-44 -143 0
-45 -144 0
-43 -205 0
-44 -206 0
-45 -207 0
-46 -49 0
-47 -50 0
-48 -51 0
-46 -157 0
-47 -158 0
-48 -159 0
-46 -169 0
-47 -170 0
-48 -171 0
-46 -217 0
-47 -218 0
-48 -219 0
-46 -280 0
-47 -281 0
-48 -282 0
-49 -184 0
-50 -185 0
-51 -186 0
-49 -238 0
-50 -239 0
-51 -240 0
-52 -94 0
-53 -95 0
-54 -96 0
-52 -172 0
-53 -173 0
-54 -174 0
-52 -229 0
-53 -230 0
-54 -231 0
-55 -64 0
-56 -65 0
-57 -66 0
-55 -127 0
-56 -128 0
-57 -129 0
-55 -145 0
-56 -146 0
-57 -147 0
-55 -199 0
-56 -200 0
-57 -201 0
-55 -223 0
-56 -224 0
-57 -225 0
-58 -85 0
-59 -86 0
-60 -87 0
-58 -148 0
-59 -149 0
-60 -150 0
-58 -175 0
-59 -176 0
-60 -177 0
-58 -274 0
-59 -275 0
-60 -276 0
-61 -139 0
-62 -140 0
-63 -141 0
-61 -193 0
-62 -194 0
-63 -195 0
-61 -226 0
-62 -227 0
-63 -228 0
-61 -238 0
-62 -239 0
-63 -240 0
-64 -172 0
-65 -173 0
-66 -174 0
-64 -184 0
-65 -185 0
-66 -186 0
-64 -211 0
-65 -212 0
-66 -213 0
-64 -268 0
-65 -269 0
-66 -270 0
-67 -70 0
-68 -71 0
-69 -72 0
-67 -181 0
-68 -182 0
-69 -183 0
-67 -265 0
-68 -266 0
-69 -267 0
-70 -154 0
-71 -155 0
-72 -156 0
-70 -196 0
-71 -197 0
-72 -198 0
-70 -217 0
-71 -218 0
-72 -219 0
-70 -292 0
-71 -293 0
-72 -294 0
-73 -97 0
-74 -98 0
-75 -99 0
-73 -118 0
-74 -119 0
-75 -120 0
-73 -208 0
-74 -209 0
-75 -210 0
-73 -247 0
-74 -248 0
-75 -249 0
-76 -136 0
-77 -137 0
-78 -138 0
-76 -214 0
-77 -215 0
-78 -216 0
-76 -241 0
-77 -242 0
-78 -243 0
-76 -286 0
-77 -287 0
-78 -288 0
-79 -235 0
-80 -236 0
-81 -237 0
-79 -262 0
-80 -263 0
-81 -264 0
-79 -286 0
-80 -287 0
-81 -288 0
-82 -97 0
-83 -98 0
-84 -99 0
-82 -151 0
-83 -152 0
-84 -153 0
-82 -193 0
-83 -194 0
-84 -195 0
-82 -202 0
-83 -203 0
-84 -204 0
-82 -289 0
-83 -290 0
-84 -291 0
-85 -157 0
-86 -158 0
-87 -159 0
-85 -253 0
-86 -254 0
-87 -255 0
-85 -280 0
-86 -281 0
-87 -282 0
-88 -121 0
-89 -122 0
-90 -123 0
-88 -163 0
-89 -164 0
-90 -165 0
-88 -253 0
-89 -254 0
-90 -255 0
-88 -289 0
-89 -290 0
-90 -291 0
-91 -103 0
-92 -104 0
-93 -105 0
-91 -202 0
-92 -203 0
-93 -204 0
-91 -232 0
-92 -233 0
-93 -234 0
-94 -151 0
-95 -152 0
-96 -153 0
-94 -172 0
-95 -173 0
-96 -174 0
-94 -199 0
-95 -200 0
-96 -201 0
-94 -226 0
-95 -227 0
-96 -228 0
-97 -166 0
-98 -167 0
-99 -168 0
-97 -256 0
-98 -257 0
-99 -258 0
-100 -244 0
-101 -245 0
-102 -246 0
-100 -247 0
-101 -248 0
-102 -249 0
-100 -262 0
-101 -263 0
-102 -264 0
-100 -277 0
-101 -278 0
-102 -279 0
-100 -283 0
-101 -284 0
-102 -285 0
-103 -106 0
-104 -107 0
-105 -108 0
-103 -133 0
-104 -134 0
-105 -135 0
-103 -178 0
-104 -179 0
-105 -180 0
-103 -256 0
-104 -257 0
-105 -258 0
-106 -127 0
-107 -128 0
-108 -129 0
-106 -166 0
-107 -167 0
-108 -168 0
-106 -196 0
-107 -197 0
-108 -198 0
-106 -223 0
-107 -224 0
-108 -225 0
-109 -121 0
-110 -122 0
-111 -123 0
-109 -136 0
-110 -137 0
-111 -138 0
-109 -214 0
-110 -215 0
-111 -216 0
-109 -250 0
-110 -251 0
-111 -252 0
-112 -142 0
-113 -143 0
-114 -144 0
-112 -235 0
-113 -236 0
-114 -237 0
-112 -259 0
-113 -260 0
-114 -261 0
-112 -286 0
-113 -287 0
-114 -288 0
-115 -133 0
-116 -134 0
-117 -135 0
-115 -241 0
-116 -242 0
-117 -243 0
-118 -127 0
-119 -128 0
-120 -129 0
-118 -133 0
-119 -134 0
-120 -135 0
-118 -208 0
-119 -209 0
-120 -210 0
-121 -154 0
-122 -155 0
-123 -156 0
-121 -265 0
-122 -266 0
-123 -267 0
-124 -145 0
-125 -146 0
-126 -147 0
-124 -217 0
-125 -218 0
-126 -219 0
-124 -226 0
-125 -227 0
-126 -228 0
-124 -238 0
-125 -239 0
-126 -240 0
-127 -289 0
-128 -290 0
-129 -291 0
-130 -160 0
-131 -161 0
-132 -162 0
-130 -178 0
-131 -179 0
-132 -180 0
-130 -190 0
-131 -191 0
-132 -192 0
-130 -217 0
-131 -218 0
-132 -219 0
-133 -163 0
-134 -164 0
-135 -165 0
-133 -268 0
-134 -269 0
-135 -270 0
-136 -154 0
-137 -155 0
-138 -156 0
-136 -214 0
-137 -215 0
-138 -216 0
-136 -259 0
-137 -260 0
-138 -261 0
-139 -178 0
-140 -179 0
-141 -180 0
-139 -187 0
-140 -188 0
-141 -189 0
-139 -259 0
-140 -260 0
-141 -261 0
-139 -283 0
-140 -284 0
-141 -285 0
-142 -151 0
-143 -152 0
-144 -153 0
-142 -241 0
-143 -242 0
-144 -243 0
-142 -280 0
-143 -281 0
-144 -282 0
-145 -178 0
-146 -179 0
-147 -180 0
-145 -211 0
-146 -212 0
-147 -213 0
-145 -223 0
-146 -224 0
-147 -225 0
-148 -157 0
-149 -158 0
-150 -159 0
-148 -235 0
-149 -236 0
-150 -237 0
-151 -196 0
-152 -197 0
-153 -198 0
-151 -250 0
-152 -251 0
-153 -252 0
-154 -211 0
-155 -212 0
-156 -213 0
-154 -277 0
-155 -278 0
-156 -279 0
-157 -232 0
-158 -233 0
-159 -234 0
-160 -175 0
-161 -176 0
-162 -177 0
-160 -199 0
-161 -200 0
-162 -201 0
-160 -202 0
-161 -203 0
-162 -204 0
-163 -166 0
-164 -167 0
-165 -168 0
-163 -190 0
-164 -191 0
-165 -192 0
-163 -199 0
-164 -200 0
-165 -201 0
-166 -190 0
-167 -191 0
-168 -192 0
-166 -280 0
-167 -281 0
-168 -282 0
-169 -184 0
-170 -185 0
-171 -186 0
-169 -205 0
-170 -206 0
-171 -207 0
-169 -232 0
-170 -233 0
-171 -234 0
-169 -262 0
-170 -263 0
-171 -264 0
-172 -199 0
-173 -200 0
-174 -201 0
-175 -220 0
-176 -221 0
-177 -222 0
-175 -253 0
-176 -254 0
-177 -255 0
-178 -229 0
-179 -230 0
-180 -231 0
-181 -211 0
-182 -212 0
-183 -213 0
-181 -223 0
-182 -224 0
-183 -225 0
-181 -274 0
-182 -275 0
-183 -276 0
-184 -205 0
-185 -206 0
-186 -207 0
-187 -211 0
-188 -212 0
-189 -213 0
-190 -244 0
-191 -245 0
-192 -246 0
-190 -271 0
-191 -272 0
-192 -273 0
-193 -208 0
-194 -209 0
-195 -210 0
-193 -274 0
-194 -275 0
-195 -276 0
-196 -214 0
-197 -215 0
-198 -216 0
-196 -262 0
-197 -263 0
-198 -264 0
-202 -259 0
-203 -260 0
-204 -261 0
-205 -241 0
-206 -242 0
-207 -243 0
-205 -292 0
-206 -293 0
-207 -294 0
-208 -289 0
-209 -290 0
-210 -291 0
-220 -226 0
-221 -227 0
-222 -228 0
-220 -235 0
-221 -236 0
-222 -237 0
-220 -250 0
-221 -251 0
-222 -252 0
-223 -271 0
-224 -272 0
-225 -273 0
-226 -229 0
-227 -230 0
-228 -231 0
-229 -247 0
-230 -248 0
-231 -249 0
-232 -271 0
-233 -272 0
-234 -273 0
-232 -283 0
-233 -284 0
-234 -285 0
-235 -274 0
-236 -275 0
-237 -276 0
-238 -256 0
-239 -257 0
-240 -258 0
-244 -268 0
-245 -269 0
-246 -270 0
-253 -277 0
-254 -278 0
-255 -279 0
-253 -289 0
-254 -290 0
-255 -291 0
-256 -286 0
-257 -287 0
-258 -288 0
-259 -271 0
-260 -272 0
-261 -273 0
-262 -292 0
-263 -293 0
-264 -294 0
-265 -277 0
-266 -278 0
-267 -279 0
-271 -274 0
-272 -275 0
-273 -276 0
